1
1000
120
495 1
495 1
492 1
491 1
488 1
479 1
478 1
474 1
471 1
462 1
459 1
452 1
442 1
441 1
438 1
436 1
427 1
426 1
425 1
421 1
421 1
421 1
415 1
408 1
407 1
407 1
402 1
390 1
390 1
385 1
385 1
383 1
378 1
377 1
376 1
368 1
362 1
361 1
356 1
355 1
355 1
355 1
352 1
352 1
346 1
346 1
345 1
342 1
339 1
339 1
330 1
329 1
324 1
320 1
319 1
316 1
315 1
312 1
308 1
306 1
306 1
305 1
305 1
303 1
301 1
300 1
298 1
298 1
297 1
297 1
297 1
294 1
292 1
292 1
287 1
287 1
287 1
285 1
284 1
282 1
282 1
281 1
279 1
277 1
276 1
274 1
273 1
272 1
272 1
270 1
269 1
269 1
269 1
268 1
266 1
266 1
265 1
265 1
264 1
263 1
262 1
258 1
258 1
258 1
257 1
257 1
257 1
257 1
255 1
255 1
255 1
254 1
254 1
253 1
251 1
251 1
251 1
251 1
250 1
250 1
